NAME : block_37.160570.tour
COMMENT : Length = 160570
COMMENT : Found by LKH-3 [Keld Helsgaun] Wed Apr 22 15:47:52 2026
TYPE : TOUR
DIMENSION : 34
TOUR_SECTION
12
13
14
15
3
4
5
6
7
8
9
19
18
17
16
2
34
1
33
20
21
22
23
24
25
26
27
28
29
30
10
11
31
32
-1
EOF
